CPXPARAM_Read_DataCheck                          1
Found incumbent of value 0.000000 after 0.02 sec. (2.56 ticks)
Tried aggregator 1 time.
MIP Presolve eliminated 2 rows and 0 columns.
MIP Presolve modified 1 coefficients.
Reduced MIP has 10031 rows, 100010 columns, and 480034 nonzeros.
Reduced MIP has 100010 binaries, 0 generals, 0 SOSs, and 0 indicators.
Presolve time = 0.28 sec. (181.74 ticks)
Tried aggregator 1 time.
Reduced MIP has 10031 rows, 100010 columns, and 480034 nonzeros.
Reduced MIP has 100010 binaries, 0 generals, 0 SOSs, and 0 indicators.
Presolve time = 0.38 sec. (205.56 ticks)
Probing time = 0.30 sec. (60.11 ticks)
Clique table members: 340077.
MIP emphasis: balance optimality and feasibility.
MIP search method: dynamic search.
Parallel mode: deterministic, using up to 4 threads.
Root relaxation solution time = 1.30 sec. (849.05 ticks)

        Nodes                                         Cuts/
   Node  Left     Objective  IInf  Best Integer    Best Bound    ItCnt     Gap

*     0+    0                            0.0000   619395.0000              --- 
      0     0   341869.0679    10        0.0000   341869.0679       16     --- 
*     0+    0                       179815.0000   341869.0679            90.12%
      0     0   341829.5208    10   179815.0000 Cliques: 2607       52   27.12%
      0     0        cutoff         179815.0000   179815.0000       63    0.00%
Elapsed time = 197.22 sec. (82510.46 ticks, tree = 0.01 MB, solutions = 2)

Clique cuts applied:  5213
Implied bound cuts applied:  1

Root node processing (before b&c):
  Real time             =  197.25 sec. (82516.88 ticks)
Parallel b&c, 4 threads:
  Real time             =    0.00 sec. (0.00 ticks)
  Sync time (average)   =    0.00 sec.
  Wait time (average)   =    0.00 sec.
                          ------------
Total (root+branch&cut) =  197.25 sec. (82516.88 ticks)
